p cnf 144 720
1 -55 0
1 -56 0
55 -55 0
56 -56 0
19 -61 0
19 -62 0
61 -61 0
62 -62 0
37 -67 0
37 -68 0
67 -67 0
68 -68 0
2 -55 0
2 -56 0
55 -55 0
56 -56 0
20 -61 0
20 -62 0
61 -61 0
62 -62 0
38 -67 0
38 -68 0
67 -67 0
68 -68 0
3 -55 0
3 -56 0
55 -55 0
56 -56 0
21 -61 0
21 -62 0
61 -61 0
62 -62 0
39 -67 0
39 -68 0
67 -67 0
68 -68 0
4 -55 0
4 -56 0
55 -55 0
56 -56 0
22 -61 0
22 -62 0
61 -61 0
62 -62 0
40 -67 0
40 -68 0
67 -67 0
68 -68 0
5 -55 0
5 -56 0
55 -55 0
56 -56 0
23 -61 0
23 -62 0
61 -61 0
62 -62 0
41 -67 0
41 -68 0
67 -67 0
68 -68 0
-6 -55 0
-6 -56 0
55 -55 0
56 -56 0
-24 -61 0
-24 -62 0
61 -61 0
62 -62 0
-42 -67 0
-42 -68 0
67 -67 0
68 -68 0
7 -55 0
7 -56 0
55 -55 0
56 -56 0
25 -61 0
25 -62 0
61 -61 0
62 -62 0
43 -67 0
43 -68 0
67 -67 0
68 -68 0
8 -55 0
8 -56 0
55 -55 0
56 -56 0
26 -61 0
26 -62 0
61 -61 0
62 -62 0
44 -67 0
44 -68 0
67 -67 0
68 -68 0
9 -55 0
9 -56 0
55 -55 0
56 -56 0
27 -61 0
27 -62 0
61 -61 0
62 -62 0
45 -67 0
45 -68 0
67 -67 0
68 -68 0
10 -55 0
10 -56 0
55 -55 0
56 -56 0
28 -61 0
28 -62 0
61 -61 0
62 -62 0
46 -67 0
46 -68 0
67 -67 0
68 -68 0
11 -73 -55 0
-11 73 -55 0
11 73 -56 0
-11 -73 -56 0
29 -73 -61 0
-29 73 -61 0
29 73 -62 0
-29 -73 -62 0
47 -73 -67 0
-47 73 -67 0
47 73 -68 0
-47 -73 -68 0
12 -55 0
12 -56 0
55 -55 0
56 -56 0
30 -61 0
30 -62 0
61 -61 0
62 -62 0
48 -67 0
48 -68 0
67 -67 0
68 -68 0
13 -55 0
13 -56 0
55 -55 0
56 -56 0
31 -61 0
31 -62 0
61 -61 0
62 -62 0
49 -67 0
49 -68 0
67 -67 0
68 -68 0
14 -55 0
14 -56 0
55 -55 0
56 -56 0
32 -61 0
32 -62 0
61 -61 0
62 -62 0
50 -67 0
50 -68 0
67 -67 0
68 -68 0
-15 -55 0
-15 -56 0
55 -55 0
56 -56 0
-33 -61 0
-33 -62 0
61 -61 0
62 -62 0
-51 -67 0
-51 -68 0
67 -67 0
68 -68 0
-16 -55 0
-16 -56 0
55 -55 0
56 -56 0
-34 -61 0
-34 -62 0
61 -61 0
62 -62 0
-52 -67 0
-52 -68 0
67 -67 0
68 -68 0
17 -55 0
17 -56 0
55 -55 0
56 -56 0
35 -61 0
35 -62 0
61 -61 0
62 -62 0
53 -67 0
53 -68 0
67 -67 0
68 -68 0
18 -55 0
18 -56 0
55 -55 0
56 -56 0
36 -61 0
36 -62 0
61 -61 0
62 -62 0
54 -67 0
54 -68 0
67 -67 0
68 -68 0
-127 55 0
127 -55 0
-128 56 0
127 -56 0
-127 -55 0
-128 -56 0
-133 55 127 0
133 -55 0
133 -127 0
-134 56 128 0
134 -56 0
134 -128 0
-133 -61 0
-134 -62 0
-139 61 133 0
139 -61 0
139 -133 0
-140 62 134 0
140 -62 0
140 -134 0
-139 -67 0
-140 -68 0
139 0
140 0
1 -57 0
1 -58 0
57 -57 0
58 -58 0
19 -63 0
19 -64 0
63 -63 0
64 -64 0
37 -69 0
37 -70 0
69 -69 0
70 -70 0
2 -57 0
2 -58 0
57 -57 0
58 -58 0
20 -63 0
20 -64 0
63 -63 0
64 -64 0
38 -69 0
38 -70 0
69 -69 0
70 -70 0
3 -57 0
3 -58 0
57 -57 0
58 -58 0
21 -63 0
21 -64 0
63 -63 0
64 -64 0
39 -69 0
39 -70 0
69 -69 0
70 -70 0
4 -57 0
4 -58 0
57 -57 0
58 -58 0
22 -63 0
22 -64 0
63 -63 0
64 -64 0
40 -69 0
40 -70 0
69 -69 0
70 -70 0
5 -57 0
5 -58 0
57 -57 0
58 -58 0
23 -63 0
23 -64 0
63 -63 0
64 -64 0
41 -69 0
41 -70 0
69 -69 0
70 -70 0
-6 -57 0
-6 -58 0
57 -57 0
58 -58 0
-24 -63 0
-24 -64 0
63 -63 0
64 -64 0
-42 -69 0
-42 -70 0
69 -69 0
70 -70 0
7 -57 0
7 -58 0
57 -57 0
58 -58 0
25 -63 0
25 -64 0
63 -63 0
64 -64 0
43 -69 0
43 -70 0
69 -69 0
70 -70 0
8 -74 -57 0
-8 74 -57 0
8 74 -58 0
-8 -74 -58 0
26 -74 -63 0
-26 74 -63 0
26 74 -64 0
-26 -74 -64 0
44 -74 -69 0
-44 74 -69 0
44 74 -70 0
-44 -74 -70 0
9 -57 0
9 -58 0
57 -57 0
58 -58 0
27 -63 0
27 -64 0
63 -63 0
64 -64 0
45 -69 0
45 -70 0
69 -69 0
70 -70 0
10 -57 0
10 -58 0
57 -57 0
58 -58 0
28 -63 0
28 -64 0
63 -63 0
64 -64 0
46 -69 0
46 -70 0
69 -69 0
70 -70 0
11 -57 0
11 -58 0
57 -57 0
58 -58 0
29 -63 0
29 -64 0
63 -63 0
64 -64 0
47 -69 0
47 -70 0
69 -69 0
70 -70 0
12 -75 -57 0
-12 75 -57 0
12 75 -58 0
-12 -75 -58 0
30 -75 -63 0
-30 75 -63 0
30 75 -64 0
-30 -75 -64 0
48 -75 -69 0
-48 75 -69 0
48 75 -70 0
-48 -75 -70 0
13 -57 0
13 -58 0
57 -57 0
58 -58 0
31 -63 0
31 -64 0
63 -63 0
64 -64 0
49 -69 0
49 -70 0
69 -69 0
70 -70 0
14 -57 0
14 -58 0
57 -57 0
58 -58 0
32 -63 0
32 -64 0
63 -63 0
64 -64 0
50 -69 0
50 -70 0
69 -69 0
70 -70 0
15 -57 0
15 -58 0
57 -57 0
58 -58 0
33 -63 0
33 -64 0
63 -63 0
64 -64 0
51 -69 0
51 -70 0
69 -69 0
70 -70 0
16 -76 -57 0
-16 76 -57 0
16 76 -58 0
-16 -76 -58 0
34 -76 -63 0
-34 76 -63 0
34 76 -64 0
-34 -76 -64 0
52 -76 -69 0
-52 76 -69 0
52 76 -70 0
-52 -76 -70 0
17 -77 -57 0
-17 77 -57 0
17 77 -58 0
-17 -77 -58 0
35 -77 -63 0
-35 77 -63 0
35 77 -64 0
-35 -77 -64 0
53 -77 -69 0
-53 77 -69 0
53 77 -70 0
-53 -77 -70 0
18 -78 -57 0
-18 78 -57 0
18 78 -58 0
-18 -78 -58 0
36 -78 -63 0
-36 78 -63 0
36 78 -64 0
-36 -78 -64 0
54 -78 -69 0
-54 78 -69 0
54 78 -70 0
-54 -78 -70 0
-129 57 0
129 -57 0
-130 58 0
129 -58 0
-129 -57 0
-130 -58 0
-135 57 129 0
135 -57 0
135 -129 0
-136 58 130 0
136 -58 0
136 -130 0
-135 -63 0
-136 -64 0
-141 63 135 0
141 -63 0
141 -135 0
-142 64 136 0
142 -64 0
142 -136 0
-141 -69 0
-142 -70 0
141 0
142 0
1 -59 0
1 -60 0
59 -59 0
60 -60 0
19 -65 0
19 -66 0
65 -65 0
66 -66 0
37 -71 0
37 -72 0
71 -71 0
72 -72 0
2 -59 0
2 -60 0
59 -59 0
60 -60 0
20 -65 0
20 -66 0
65 -65 0
66 -66 0
38 -71 0
38 -72 0
71 -71 0
72 -72 0
3 -59 0
3 -60 0
59 -59 0
60 -60 0
21 -65 0
21 -66 0
65 -65 0
66 -66 0
39 -71 0
39 -72 0
71 -71 0
72 -72 0
4 -59 0
4 -60 0
59 -59 0
60 -60 0
22 -65 0
22 -66 0
65 -65 0
66 -66 0
40 -71 0
40 -72 0
71 -71 0
72 -72 0
5 -59 0
5 -60 0
59 -59 0
60 -60 0
23 -65 0
23 -66 0
65 -65 0
66 -66 0
41 -71 0
41 -72 0
71 -71 0
72 -72 0
-6 -59 0
-6 -60 0
59 -59 0
60 -60 0
-24 -65 0
-24 -66 0
65 -65 0
66 -66 0
-42 -71 0
-42 -72 0
71 -71 0
72 -72 0
7 -59 0
7 -60 0
59 -59 0
60 -60 0
25 -65 0
25 -66 0
65 -65 0
66 -66 0
43 -71 0
43 -72 0
71 -71 0
72 -72 0
8 -59 0
8 -60 0
59 -59 0
60 -60 0
26 -65 0
26 -66 0
65 -65 0
66 -66 0
44 -71 0
44 -72 0
71 -71 0
72 -72 0
9 -59 0
9 -60 0
59 -59 0
60 -60 0
27 -65 0
27 -66 0
65 -65 0
66 -66 0
45 -71 0
45 -72 0
71 -71 0
72 -72 0
10 -59 0
10 -60 0
59 -59 0
60 -60 0
28 -65 0
28 -66 0
65 -65 0
66 -66 0
46 -71 0
46 -72 0
71 -71 0
72 -72 0
11 -59 0
11 -60 0
59 -59 0
60 -60 0
29 -65 0
29 -66 0
65 -65 0
66 -66 0
47 -71 0
47 -72 0
71 -71 0
72 -72 0
-12 -59 0
-12 -60 0
59 -59 0
60 -60 0
-30 -65 0
-30 -66 0
65 -65 0
66 -66 0
-48 -71 0
-48 -72 0
71 -71 0
72 -72 0
13 -59 0
13 -60 0
59 -59 0
60 -60 0
31 -65 0
31 -66 0
65 -65 0
66 -66 0
49 -71 0
49 -72 0
71 -71 0
72 -72 0
14 -79 -59 0
-14 79 -59 0
14 79 -60 0
-14 -79 -60 0
32 -79 -65 0
-32 79 -65 0
32 79 -66 0
-32 -79 -66 0
50 -79 -71 0
-50 79 -71 0
50 79 -72 0
-50 -79 -72 0
-15 -59 0
-15 -60 0
59 -59 0
60 -60 0
-33 -65 0
-33 -66 0
65 -65 0
66 -66 0
-51 -71 0
-51 -72 0
71 -71 0
72 -72 0
-16 -59 0
-16 -60 0
59 -59 0
60 -60 0
-34 -65 0
-34 -66 0
65 -65 0
66 -66 0
-52 -71 0
-52 -72 0
71 -71 0
72 -72 0
17 -59 0
17 -60 0
59 -59 0
60 -60 0
35 -65 0
35 -66 0
65 -65 0
66 -66 0
53 -71 0
53 -72 0
71 -71 0
72 -72 0
18 -80 -59 0
-18 80 -59 0
18 80 -60 0
-18 -80 -60 0
36 -80 -65 0
-36 80 -65 0
36 80 -66 0
-36 -80 -66 0
54 -80 -71 0
-54 80 -71 0
54 80 -72 0
-54 -80 -72 0
-131 59 0
131 -59 0
-132 60 0
131 -60 0
-131 -59 0
-132 -60 0
-137 59 131 0
137 -59 0
137 -131 0
-138 60 132 0
138 -60 0
138 -132 0
-137 -65 0
-138 -66 0
-143 65 137 0
143 -65 0
143 -137 0
-144 66 138 0
144 -66 0
144 -138 0
-143 -71 0
-144 -72 0
143 0
144 0
